id: 1297
name: rmine14
group: miplib2010
method: 2

Gurobi 7.0.2 (linux64, Matlab) logging started Mon Mar 26 10:20:56 2018


Gurobi 7.0.2 (linux64) logging started Mon Mar 26 10:20:56 2018

Optimize a model with 268535 rows, 32205 columns and 660346 nonzeros
Coefficient statistics:
  Matrix range     [1e+00, 1e+02]
  Objective range  [2e-05, 3e+00]
  Bounds range     [1e+00, 1e+00]
  RHS range        [1e+04, 1e+04]
Presolve removed 32 rows and 64 columns
Presolve time: 0.29s
Presolved: 32173 rows, 300676 columns, 692327 nonzeros

Ordering time: 1.39s

Barrier statistics:
 Dense cols : 28
 AA' NZ     : 3.917e+05
 Factor NZ  : 2.318e+07 (roughly 300 MBytes of memory)
 Factor Ops : 4.700e+10 (roughly 1 second per iteration)
 Threads    : 4

                  Objective                Residual
Iter       Primal          Dual         Primal    Dual     Compl     Time
   0  -3.50358016e+05 -0.00000000e+00  1.07e+00 0.00e+00  1.65e+00     3s
   1  -2.59624763e+05 -4.03681481e+02  7.55e-01 3.49e+00  1.14e+00     3s
   2  -1.05484922e+05 -1.01113906e+03  2.34e-01 1.53e+00  4.15e-01     4s
   3  -2.45182040e+04 -1.61753556e+03  3.61e-02 2.60e-01  7.98e-02     4s
   4  -9.69802828e+03 -2.28582217e+03  1.01e-02 1.99e-02  2.46e-02     5s
   5  -6.91948054e+03 -3.01419971e+03  4.98e-03 5.17e-03  1.27e-02     6s
   6  -5.41613613e+03 -3.80962691e+03  1.71e-03 9.35e-04  5.07e-03     6s
   7  -4.80741770e+03 -4.11279521e+03  7.45e-04 7.09e-11  2.18e-03     7s
   8  -4.61052638e+03 -4.20180810e+03  4.59e-04 5.28e-11  1.28e-03     8s
   9  -4.47487988e+03 -4.24432109e+03  2.74e-04 6.00e-11  7.27e-04     9s
  10  -4.42038287e+03 -4.26928581e+03  1.93e-04 8.73e-11  4.79e-04     9s
  11  -4.38205339e+03 -4.28195290e+03  1.30e-04 7.09e-11  3.19e-04    10s
  12  -4.35665161e+03 -4.28931829e+03  8.83e-05 4.18e-11  2.15e-04    10s
  13  -4.34502569e+03 -4.29161639e+03  6.67e-05 9.46e-11  1.71e-04    11s
  14  -4.33642668e+03 -4.29397170e+03  5.17e-05 6.73e-11  1.36e-04    12s
  15  -4.33104215e+03 -4.29709617e+03  4.21e-05 8.73e-11  1.09e-04    12s
  16  -4.32486409e+03 -4.30051424e+03  3.16e-05 1.18e-10  7.84e-05    13s
  17  -4.31914381e+03 -4.30313338e+03  1.99e-05 4.37e-11  5.17e-05    13s
  18  -4.31539003e+03 -4.30542931e+03  1.21e-05 1.06e-10  3.22e-05    14s
  19  -4.31343919e+03 -4.30770104e+03  7.62e-06 9.82e-11  1.86e-05    15s
  20  -4.31243667e+03 -4.30928091e+03  4.93e-06 1.64e-10  1.03e-05    15s
  21  -4.31129388e+03 -4.31021184e+03  1.68e-06 3.77e-10  3.53e-06    16s
  22  -4.31098575e+03 -4.31042059e+03  8.02e-07 2.22e-10  1.84e-06    17s
  23  -4.31095804e+03 -4.31049556e+03  7.25e-07 9.64e-11  1.51e-06    17s
  24  -4.31078920e+03 -4.31056322e+03  2.58e-07 8.19e-11  7.36e-07    18s
  25  -4.31070423e+03 -4.31066318e+03  2.19e-08 1.63e-09  1.33e-07    19s
  26  -4.31069654e+03 -4.31068788e+03  3.76e-09 2.91e-08  2.81e-08    19s
  27  -4.31069517e+03 -4.31069160e+03  8.47e-10 1.42e-08  1.16e-08    20s
  28  -4.31069498e+03 -4.31069466e+03  5.17e-10 3.27e-09  1.06e-09    20s
  29  -4.31069471e+03 -4.31069470e+03  4.81e-10 6.06e-09  2.34e-11    21s

Barrier solved model in 29 iterations and 21.09 seconds
Optimal objective -4.31069471e+03

Crossover log...

   15729 DPushes remaining with DInf 0.0000000e+00                21s
    3955 DPushes remaining with DInf 0.0000000e+00                28s
    2995 DPushes remaining with DInf 0.0000000e+00                31s
    1271 DPushes remaining with DInf 0.0000000e+00                38s
     366 DPushes remaining with DInf 0.0000000e+00                41s
       0 DPushes remaining with DInf 4.5456927e-10                43s

  206871 PPushes remaining with PInf 1.4261280e-03                43s
   94429 PPushes remaining with PInf 2.5695499e-05                45s
       0 PPushes remaining with PInf 4.3347701e-06                49s

  Push phase complete: Pinf 4.3347701e-06, Dinf 3.6613243e-10     49s

Iteration    Objective       Primal Inf.    Dual Inf.      Time
  222603   -4.3106946e+03   4.334770e-06   0.000000e+00     49s
  222608   -4.3106947e+03   0.000000e+00   0.000000e+00     49s

Solved in 222608 iterations and 48.90 seconds
Optimal objective -4.310694704e+03
status: OPTIMAL
